BEGIN IONS
TITLE=demo_0
CHARGE=1+
PRECURSOR_TYPE=[M+H]+
PRECURSOR_MZ=220.1193
MOLMASS=219.11201003600002
MS_LEVEL=MS2
IONMODE=P
SOURCE_INSTRUMENT=Agilent 6530 Q-TOF
INSTRUMENT_TYPE=LC-ESI-QTOF
COLLISION_ENERGY=40 V
SMILES=C/C(=C\CNc1nc[nH]c2ncnc1-2)CO
INCHI_KEY=UZKQTCBAMSWPJD-FARCUNLSSA-N
41.0399 6.207207
43.0192 49.711712
43.0766 1.986987
55.0301 2.316316
57.0709 1.600601
65.015 3.496496
65.0366 1.581582
67.0302 6.727728
67.0517 4.393393
82.0409 2.598599
92.0251 16.601602
94.0407 8.375375
109.0512 5.252252
119.0354 100.0
119.1288 4.228228
121.0556 1.025025
136.0619 41.038038
136.1628 1.571572
148.0621 2.447447
END IONS

BEGIN IONS
TITLE=demo_1
CHARGE=1+
PRECURSOR_TYPE=[M+H]+
PRECURSOR_MZ=220.1193
MOLMASS=219.11201003600002
MS_LEVEL=MS2
IONMODE=P
SOURCE_INSTRUMENT=Agilent 6530 Q-TOF
INSTRUMENT_TYPE=LC-ESI-QTOF
COLLISION_ENERGY=20 V
SMILES=C/C(=C\CNc1nc[nH]c2ncnc1-2)CO
INCHI_KEY=UZKQTCBAMSWPJD-FARCUNLSSA-N
43.0193 12.172172
57.0708 1.157157
67.055 1.543544
119.0352 5.111111
136.062 100.0
148.0618 7.517518
159.0663 1.36036
185.0818 4.06006
202.1082 4.022022
220.1191 3.332332
END IONS

BEGIN IONS
TITLE=demo_2
CHARGE=1+
PRECURSOR_TYPE=[M+H]+
PRECURSOR_MZ=220.1193
MOLMASS=219.11201003600002
MS_LEVEL=MS2
IONMODE=P
SOURCE_INSTRUMENT=Agilent 6530 Q-TOF
INSTRUMENT_TYPE=LC-ESI-QTOF
COLLISION_ENERGY=10 V
SMILES=C/C(=C\CNc1nc[nH]c2ncnc1-2)CO
INCHI_KEY=UZKQTCBAMSWPJD-FARCUNLSSA-N
43.0192 3.637638
119.0351 1.31031
136.062 74.32032
148.0617 10.318318
185.0822 3.870871
202.1085 22.602603
220.1195 100.0
END IONS