BEGIN IONS
TITLE=demo_0
MSLEVEL=2
ORGANISM=3DMolMS_v1.1
SPECTRUMID=pred_0
SMILES=C/C(=C\CNc1nc[nH]c2ncnc1-2)CO
COLLISION_ENERGY=39.9753032088094
PRECURSOR_TYPE=[M+H]+
41.00000 39.8
43.00000 172.5
55.00000 14.0
57.00000 18.7
65.00000 28.2
67.00000 91.8
82.00000 25.5
92.00000 113.8
94.00000 61.8
109.00000 73.3
119.00000 1000.0
136.00000 621.4
148.00000 13.0
END IONS

BEGIN IONS
TITLE=demo_1
MSLEVEL=2
ORGANISM=3DMolMS_v1.1
SPECTRUMID=pred_1
SMILES=C/C(=C\CNc1nc[nH]c2ncnc1-2)CO
COLLISION_ENERGY=19.9876516044047
PRECURSOR_TYPE=[M+H]+
43.00000 43.6
57.00000 11.8
119.00000 22.8
136.00000 1000.0
148.00000 50.5
185.00000 32.9
202.00000 38.9
END IONS

BEGIN IONS
TITLE=demo_2
MSLEVEL=2
ORGANISM=3DMolMS_v1.1
SPECTRUMID=pred_2
SMILES=C/C(=C\CNc1nc[nH]c2ncnc1-2)CO
COLLISION_ENERGY=9.99382580220235
PRECURSOR_TYPE=[M+H]+
136.00000 1000.0
148.00000 90.6
185.00000 28.3
202.00000 231.5
END IONS

