BEGIN IONS
TITLE=mona_0
CHARGE=1+
PRECURSOR_TYPE=[M+H]+
PRECURSOR_MZ=220.1193
MOLMASS=219.11201003600002
MS_LEVEL=MS2
IONMODE=P
SOURCE_INSTRUMENT=Agilent 6530 Q-TOF
INSTRUMENT_TYPE=LC-ESI-QTOF
COLLISION_ENERGY=40 V
SMILES=C/C(=C\CNc1nc[nH]c2ncnc1-2)CO
INCHI_KEY=UZKQTCBAMSWPJD-FARCUNLSSA-N
41.0399 6.207207
43.0192 49.711712
43.0766 1.986987
55.0301 2.316316
57.0709 1.600601
65.015 3.496496
65.0366 1.581582
67.0302 6.727728
67.0517 4.393393
82.0409 2.598599
92.0251 16.601602
94.0407 8.375375
109.0512 5.252252
119.0354 100.0
119.1288 4.228228
121.0556 1.025025
136.0619 41.038038
136.1628 1.571572
148.0621 2.447447
END IONS

