BEGIN IONS
TITLE=demo_0
PRECURSOR_TYPE=[M+H]+
IONMODE=POSITIVE
COLLISION_ENERGY=20
SMILES=O=S(=O)(O)CC(O)CN1CCN(CCO)CC1
0. 0.
END IONS

BEGIN IONS
TITLE=demo_1
PRECURSOR_TYPE=[M+H]+
IONMODE=POSITIVE
COLLISION_ENERGY=40
SMILES=O=S(=O)(O)CC(O)CN1CCN(CCO)CC1
0. 0.
END IONS

BEGIN IONS
TITLE=demo_2
PRECURSOR_TYPE=[M+H]+
IONMODE=POSITIVE
COLLISION_ENERGY=20
SMILES=NC(CCCCn1cccc2nc(NCCCC(N)C(=O)O)nc1-2)C(=O)O
0. 0.
END IONS

BEGIN IONS
TITLE=demo_3
PRECURSOR_TYPE=[M+H]+
IONMODE=POSITIVE
COLLISION_ENERGY=40
SMILES=NC(CCCCn1cccc2nc(NCCCC(N)C(=O)O)nc1-2)C(=O)O
0. 0.
END IONS

BEGIN IONS
TITLE=demo_4
PRECURSOR_TYPE=[M-H]-
IONMODE=POSITIVE
COLLISION_ENERGY=20
SMILES=O=S(=O)(O)CC(O)CN1CCN(CCO)CC1
0. 0.
END IONS

BEGIN IONS
TITLE=demo_5
PRECURSOR_TYPE=[M-H]-
IONMODE=POSITIVE
COLLISION_ENERGY=40
SMILES=O=S(=O)(O)CC(O)CN1CCN(CCO)CC1
0. 0.
END IONS

BEGIN IONS
TITLE=demo_6
PRECURSOR_TYPE=[M-H]-
IONMODE=POSITIVE
COLLISION_ENERGY=20
SMILES=NC(CCCCn1cccc2nc(NCCCC(N)C(=O)O)nc1-2)C(=O)O
0. 0.
END IONS

BEGIN IONS
TITLE=demo_7
PRECURSOR_TYPE=[M-H]-
IONMODE=POSITIVE
COLLISION_ENERGY=40
SMILES=NC(CCCCn1cccc2nc(NCCCC(N)C(=O)O)nc1-2)C(=O)O
0. 0.
END IONS
